variable	name string rollingPart

variable	z loop 10

variable	coeffFric index 0.0 0.087489 0.176327 0.267949 0.286745 0.324920 0.363970 0.577350 1.732051 5.671282

thermo_modify	flush yes lost warn

units		si

###############################################
# Particle parameters
################################################

variable	min_rad equal 0.1

variable 	sk equal ${min_rad}

variable	kn equal 5*10^5
variable	kt equal 10^5

variable	gravity equal 9.81
variable	density equal 1200.0

variable	dt equal 0.0001
timestep	${dt}

###############################################

variable	dumpfreq equal 200
variable	logfreq equal 200

newton 		on
atom_style	sphere

boundary	f f f

region		boxreg block 0 10000 -1 1 -1 1
create_box	1 boxreg

######### No viscoelastic damping for nornal nor tangential forces #########

pair_style	gran/hertz/history &
		${kn} ${kt} 30 30 ${coeffFric} 1

pair_coeff	* *

neighbor        ${sk} bin
thermo 		${logfreq}
comm_modify 	mode multi group all vel yes

################## Spheres creation and their properties ####################

variable	theta equal (step/400000)*2*PI

create_atoms 	1 single 0 0 ${min_rad}

set 		atom 1 diameter 0.2

set 		atom 1 density ${density}

group		group1 id 1

fix		pl all wall/gran hertz/history ${kn} ${kt} 30 30 ${coeffFric} 1 zplane 0 NULL

fix		grav group1 gravity ${gravity} vector 0.7071067812 0 -0.7071067812

fix		1 all nve/sphere

dump		1 all custom ${dumpfreq} ${name}_coefFrict_${coeffFric}_hertz.dump &
		id type radius x y z tqx tqy tqz fx fy fz

thermo_style	custom step cpu atoms ke

run		450000

clear
next coeffFric
next z

jump in.hertz.rolling_sliding_sphere
